1 3 100 38334.97
1 3 200 38601.18
1 3 300 38611.28
2 3 100 35909.37
2 3 200 35448.60
2 3 300 35701.78
3 3 100 34440.34
3 3 200 34664.76
3 3 300 35264.10
4 3 100 33964.18
4 3 200 34206.05
4 3 300 34362.12
5 3 100 32770.65
5 3 200 32904.04
5 3 300 33576.21
